certificates/rado_a10_c96_N26.drat
8 11 -26 0
11 -26 0
d 8 11 -26 0
-26 0
-10 -8 0
24 0
-8 0
10 0
-6 0
-14 0
-11 0
-20 0
0
